10J3M/DAT/10J3MNTX-5.dat
10 3
21.7099 4.6594
20.4833 4.5258
24.4199 4.9416
23.0727 4.8034
20.3079 4.5064
21.7072 4.6591
22.8182 4.7768
23.476 4.8452
21.5936 4.6469
32.4925 5.7002
12.0162