10J3M/SOL/10J3MNTX-5.sol
solution status: optimal solution found
objective value:                      67.730164398695
x#1#1                               0.350158599611547 	(obj:0)
x#1#2                               0.103451657744752 	(obj:0)
x#1#3                               0.546389742643701 	(obj:0)
x#2#3                                               1 	(obj:0)
x#4#1                                               1 	(obj:0)
x#5#1                                               1 	(obj:0)
x#6#1                                0.06422213366685 	(obj:0)
x#6#2                               0.299682935464358 	(obj:0)
x#6#3                                0.63609493086879 	(obj:0)
x#7#2                                               1 	(obj:0)
x#8#2                                               1 	(obj:0)
x#9#3                               0.244920294044769 	(obj:0)
z                                     67.730164398695 	(obj:1)
